opt/mkp.mps
*SENSE:Maximize
NAME          mkp
ROWS
 N  OBJ
 L  c_1
 L  c_2
COLUMNS
    MARK      'MARKER'                 'INTORG'
    x(1)      c_1        2.000000000000e+00
    x(1)      c_2        3.000000000000e+03
    x(1)      OBJ        1.600000000000e+01
    MARK      'MARKER'                 'INTEND'
    MARK      'MARKER'                 'INTORG'
    x(2)      c_1        3.000000000000e+00
    x(2)      c_2        3.500000000000e+03
    x(2)      OBJ        1.900000000000e+01
    MARK      'MARKER'                 'INTEND'
    MARK      'MARKER'                 'INTORG'
    x(3)      c_1        4.000000000000e+00
    x(3)      c_2        5.100000000000e+03
    x(3)      OBJ        2.300000000000e+01
    MARK      'MARKER'                 'INTEND'
    MARK      'MARKER'                 'INTORG'
    x(4)      c_1        5.000000000000e+00
    x(4)      c_2        7.200000000000e+03
    x(4)      OBJ        2.800000000000e+01
    MARK      'MARKER'                 'INTEND'
RHS
    RHS       c_1        7.000000000000e+00
    RHS       c_2        1.000000000000e+04
BOUNDS
 BV BND       x(1)    
 BV BND       x(2)    
 BV BND       x(3)    
 BV BND       x(4)    
ENDATA
